2	19	1	8	29	100	0	0	0	0	0	0
1400	1	0	0	0	0	0	0	0	0	0	0
1400	1	0	0	0	0	0	0	0	0	0	0
175	1	0	117.7	2.29	1	0	0	0	0	0	0
175	1	0	117.7	2.29	1	0	0	0	0	0	0
175	1	0	117.7	2.29	1	0	0	0	0	0	0
175	1	0	117.7	2.29	1	0	0	0	0	0	0
175	1	0	117.7	2.29	1	0	0	0	0	0	0
175	1	0	117.7	2.29	1	0	0	0	0	0	0
175	1	0	117.7	2.29	1	0	0	0	0	0	0
175	1	0	117.7	2.29	1	0	0	0	0	0	0
175	1	0	117.7	2.29	1	0	0	0	0	0	0
175	1	0	117.7	2.29	1	0	0	0	0	0	0
175	1	0	117.7	2.29	1	0	0	0	0	0	0
175	1	0	117.7	2.29	1	0	0	0	0	0	0
175	1	0	117.7	2.29	1	0	0	0	0	0	0
175	1	0	117.7	2.29	1	0	0	0	0	0	0
175	1	0	117.7	2.29	1	0	0	0	0	0	0
175	1	0	117.7	2.29	1	0	0	0	0	0	0
175	1	0	117.7	2.29	1	0	0	0	0	0	0
175	1	0	117.7	2.29	1	0	0	0	0	0	0
175	1	0	117.7	2.29	1	0	0	0	0	0	0
50	150	0	0	0	0	3390	0	0	99999	0	0
25	25	0	0	0	0	3390	0	0	99999	0	0
50	25	0	0	0	0	3390	0	0	99999	0	0
75	25	0	0	0	0	3390	0	0	99999	0	0
25	50	0	0	0	0	3390	0	0	99999	0	0
75	50	0	0	0	0	3390	0	0	99999	0	0
25	75	0	0	0	0	3390	0	0	99999	0	0
50	75	0	0	0	0	3390	0	0	99999	0	0
75	75	0	0	0	0	3390	0	0	99999	0	0
25	25	0	0	0	0	3390	0	0	0	0	0
50	25	0	0	0	0	3390	0	0	0	0	0
75	25	0	0	0	0	3390	0	0	0	0	0
25	50	0	0	0	0	3390	0	0	0	0	0
75	50	0	0	0	0	3390	0	0	0	0	0
25	75	0	0	0	0	3390	0	0	0	0	0
50	75	0	0	0	0	3390	0	0	0	0	0
75	75	0	0	0	0	3390	0	0	0	0	0
40      50      0       0       0       0       1236    0       0       0       0       0
73      52      0       0       0       0       1236    0       0       0       0       0
90      55      0       0       0       0       1236    0       0       0       0       0
55      79      0       0       0       0       1236    0       0       0       0       0
69      89      0       0       0       0       1236    0       0       0       0       0
32      80      0       0       0       0       1236    0       0       0       0       0
39      96      0       0       0       0       1236    0       0       0       0       0
23      80      0       0       0       0       1236    0       0       0       0       0
4	83	0	0	0	0	3390	0	0	0	0	0
18	58	0	0	0	0	3390	0	0	0	0	0
1	56	0	0	0	0	3390	0	0	0	0	0
13	31	0	0	0	0	3390	0	0	0	0	0
-5	38	0	0	0	0	3390	0	0	0	0	0
26	37	0	0	0	0	3390	0	0	0	0	0
28	13	0	0	0	0	3390	0	0	0	0	0
39	31	0	0	0	0	3390	0	0	0	0	0
48	11	0	0	0	0	3390	0	0	0	0	0
59	17	0	0	0	0	3390	0	0	0	0	0
73	23	0	0	0	0	3390	0	0	0	0	0
74	32	0	0	0	0	3390	0	0	0	0	0
90	44	0	0	0	0	3390	0	0	0	0	0
52	75	10	7	3	905	1429	90	0	0	0	0
45	70	30	19	11	1036	1494	90	0	0	0	0
62	69	10	9	1	131	700	90	0	0	0	0
60	66	10	9	1	127	723	90	0	0	0	0
42	65	10	6	4	1137	1769	90	0	0	0	0
16	42	20	8	12	2478	2972	90	0	0	0	0
58	70	20	17	3	145	665	90	0	0	0	0
34	60	20	11	9	113	679	90	0	0	0	0
28	70	10	4	6	125	807	90	0	0	0	0
35	66	10	5	5	118	669	90	0	0	0	0
35	69	10	5	5	121	715	90	0	0	0	0
25	85	20	6	14	467	911	90	0	0	0	0
22	75	30	9	21	230	764	90	0	0	0	0
22	85	10	3	7	514	1050	90	0	0	0	0
20	80	40	10	30	402	782	90	0	0	0	0
20	85	40	9	31	630	1118	90	0	0	0	0
18	75	20	5	15	836	1482	90	0	0	0	0
15	75	20	4	16	877	1255	90	0	0	0	0
15	80	10	2	8	727	1215	90	0	0	0	0
30	50	10	6	4	2893	3391	90	0	0	0	0
30	56	20	11	9	2873	3389	90	0	0	0	0
28	52	20	11	9	2894	3388	90	0	0	0	0
14	66	10	2	8	1119	1595	90	0	0	0	0
25	50	10	5	5	2829	3383	90	0	0	0	0
22	66	40	13	27	951	1567	90	0	0	0	0
8	62	10	1	9	1158	1752	90	0	0	0	0
23	52	10	4	6	2813	3213	90	0	0	0	0
4	55	20	1	19	1474	2074	90	0	0	0	0
20	50	10	4	6	2606	3040	90	0	0	0	0
20	55	10	4	6	2697	3139	90	0	0	0	0
10	35	20	6	14	2226	2656	90	0	0	0	0
10	40	30	8	22	2350	2906	90	0	0	0	0
8	40	40	8	32	2199	2873	90	0	0	0	0
8	45	20	4	16	1667	2083	90	0	0	0	0
5	35	10	1	9	2055	2637	90	0	0	0	0
5	45	10	1	9	1685	2251	90	0	0	0	0
2	40	20	1	19	2041	2459	90	0	0	0	0
0	40	30	0	30	1904	2412	90	0	0	0	0
0	45	20	0	20	1790	2336	90	0	0	0	0
36	18	10	5	5	912	1386	90	0	0	0	0
35	32	10	9	1	120	622	90	0	0	0	0
33	32	20	19	1	179	607	90	0	0	0	0
33	35	10	9	1	118	620	90	0	0	0	0
32	20	10	6	4	794	1316	90	0	0	0	0
30	30	10	10	0	635	1091	90	0	0	0	0
34	25	30	22	8	691	1227	90	0	0	0	0
30	35	10	9	1	254	722	90	0	0	0	0
36	40	10	9	1	112	594	90	0	0	0	0
48	20	10	4	6	1880	2400	90	0	0	0	0
26	32	10	8	2	456	896	90	0	0	0	0
25	30	10	8	2	492	1044	90	0	0	0	0
25	35	10	7	3	332	834	90	0	0	0	0
44	5	20	2	18	1543	2161	90	0	0	0	0
42	10	40	10	30	1706	2188	90	0	0	0	0
42	15	10	4	6	1799	2285	90	0	0	0	0
40	5	30	4	26	1509	2007	90	0	0	0	0
38	15	40	16	24	1074	1690	90	0	0	0	0
38	5	30	4	26	1398	1934	90	0	0	0	0
38	10	10	3	7	1234	1720	90	0	0	0	0
35	5	20	3	17	1335	1811	90	0	0	0	0
50	30	10	6	4	2171	2869	90	0	0	0	0
50	35	20	14	6	2551	3051	90	0	0	0	0
50	40	50	40	10	1802	2380	90	0	0	0	0
48	30	10	6	4	2169	2687	90	0	0	0	0
44	25	10	6	4	1939	2535	90	0	0	0	0
47	35	10	7	3	2639	3149	90	0	0	0	0
47	40	10	9	1	1875	2493	90	0	0	0	0
42	30	10	7	3	2055	2609	90	0	0	0	0
45	35	10	8	2	2699	3273	90	0	0	0	0
95	30	30	9	21	989	1443	90	0	0	0	0
95	35	20	7	13	861	1381	90	0	0	0	0
53	30	10	6	4	2401	2825	90	0	0	0	0
92	30	10	3	7	1001	1617	90	0	0	0	0
53	35	50	33	17	2443	2973	90	0	0	0	0
45	65	20	14	6	1049	1671	90	0	0	0	0
90	35	10	4	6	760	1292	90	0	0	0	0
72	45	10	6	4	1520	2070	90	0	0	0	0
78	40	20	10	10	1428	1966	90	0	0	0	0
87	30	10	3	7	1250	1756	90	0	0	0	0
85	25	10	3	7	1186	1630	90	0	0	0	0
85	35	30	12	18	1337	1859	90	0	0	0	0
75	55	20	15	5	400	978	90	0	0	0	0
72	55	10	8	2	338	854	90	0	0	0	0
70	58	20	17	3	251	753	90	0	0	0	0
86	46	30	16	14	623	1225	90	0	0	0	0
66	55	10	8	2	128	693	90	0	0	0	0
64	46	20	14	6	1646	2140	90	0	0	0	0
65	60	30	28	2	128	623	90	0	0	0	0
56	64	10	9	1	123	627	90	0	0	0	0
60	55	10	9	1	122	648	90	0	0	0	0
60	60	10	10	0	124	829	90	0	0	0	0
67	85	20	16	4	530	1038	90	0	0	0	0
42	58	40	29	11	1255	1845	90	0	0	0	0
65	82	10	8	2	457	923	90	0	0	0	0
62	80	30	23	7	365	829	90	0	0	0	0
62	40	10	6	4	1709	2269	90	0	0	0	0
60	85	30	21	9	621	1141	90	0	0	0	0
58	75	20	15	5	223	777	90	0	0	0	0
55	80	10	7	3	817	1325	90	0	0	0	0
55	85	20	13	7	748	1204	90	0	0	0	0
